
# -----			-----
# -----   PARAMETERS	-----
# -----			-----

set PLANES := av1 av2 av3 av4 av5 av6 av7;

# -----	  Problem 1	-----

# Maximum seat amount per plane
param max_seats :=
av1 90
av2 120
av3 200
av4 150
av5 190
av6 320
av7 580;

# Maximum total weight of luggage per plane
param max_weight :=
av1 1700
av2 2700
av3 1300
av4 1700
av5 2000
av6 3500
av7 4400;

# -----	  Problem 2	-----

# The timeslots per runway
set TIMESLOTS := p01t00 p01t15 p01t30 p01t45 p01t60 p01t75
	p02t00 p02t15 p02t30 p02t45 p02t60 p02t75
	p03t00 p03t15 p03t30 p03t45 p03t60 p03t75
	p04t00 p04t15 p04t30 p04t45 p04t60 p04t75
	p05t00 p05t15 p05t30 p05t45 p05t60 p05t75;

# The cost in euros per minute for every plane
param plane_cost :=
av1 100
av2 200
av3 150
av4 250
av5 200
av6 300
av7 350;

# av6 arrives at 09:10 and maximum alloted time is at 10:15
# av7 arrives at 08:45 and maximum alloted time is at 10:30

# Runway 5 has available slots at 9:00, 9:15, 9:45 and 10:00 (duration of 15 minutes)

# Minutes on the air per plane per timeslot. 99999 means infinite cost,
# so that planes are not assigned to that timeslot due to unavailable
# runways or landing schedule not coinciding.

# (## means available timeslot)
#		Cost	100€	200€	150€	250€	200€
param unit_cost : 	av1 	av2 	av3 	av4 	av5 	av6	av7 :=
p01t00			99999	99999	99999	99999	99999	99999	99999
p01t15			99999	99999	99999	99999	99999	99999	99999
p01t30			99999	99999	99999	99999	99999	99999	99999
p01t45			99999	99999	99999	99999	99999	99999	99999
p01t60			50	99999	99999	5	99999	50	75	##
p01t75			99999	99999	99999	99999	5	99999	90	##
		
p02t00			99999	99999	99999	99999	99999	99999	99999
p02t15			99999	99999	99999	99999	99999	99999	99999
p02t30			20	99999	99999	99999	99999	20	45	##
p02t45			35	99999	5	99999	99999	35	60	##
p02t60			99999	99999	99999	99999	99999	99999	99999
p02t75			99999	99999	99999	99999	99999	99999	99999
	
p03t00			99999	5	99999	99999	99999	99999	15	##
p03t15			5	20	99999	99999	99999	5	30	##
p03t30			20	99999	99999	99999	99999	20	45	##
p03t45			99999	99999	99999	99999	99999	99999	99999
p03t60			99999	99999	99999	99999	99999	99999	99999
p03t75			65	99999	99999	99999	5	99999	90	##
	
p04t00			99999	5	99999	99999	99999	99999	15	##
p04t15			99999	99999	99999	99999	99999	99999	99999	
p04t30			99999	99999	99999	99999	99999	99999	99999
p04t45			99999	99999	99999	99999	99999	99999	99999
p04t60			50	99999	99999	5	99999	50	75	##
p04t75			65	99999	99999	99999	5	99999	90	##

p05t00			99999	5	99999	99999	99999	99999	15	##
p05t15			5	20	99999	99999	99999	5	30	##
p05t30			99999	99999	99999	99999	99999	99999	99999
p05t45			35	99999	5	99999	99999	35	60	##
p05t60			50	99999	20	5	99999	50	75	##
p05t75			99999	99999	99999	99999	99999	99999	99999;
